unsat
(:SPACER-conj                         1
 :SPACER-inductive-gen                29
 :SPACER-inductive-gen-weaken-fail    43
 :SPACER-inductive-gen-weaken-success 13
 :SPACER-inductive-level              2
 :SPACER-max-depth                    5
 :SPACER-max-query-lvl                5
 :SPACER-non-local-gen                1
 :SPACER-num-active-lemmas            13
 :SPACER-num-ctp-blocked              16
 :SPACER-num-invariants               13
 :SPACER-num-is_invariant             57
 :SPACER-num-lemma-jumped             4
 :SPACER-num-lemmas                   34
 :SPACER-num-pobs                     15
 :SPACER-num-propagations             23
 :SPACER-num-queries                  24
 :SPACER-subsume-pob                  2
 :SPACER-subsume-success              6
 :added-eqs                           4540
 :arith-assert-diseq                  2022
 :arith-assert-lower                  3594
 :arith-assert-upper                  6666
 :arith-bound-prop                    308
 :arith-conflicts                     58
 :arith-eq-adapter                    564
 :arith-fixed-eqs                     1098
 :arith-num-rows                      50
 :arith-offset-eqs                    850
 :arith-pivots                        484
 :arith-row-summations                2962
 :arith-tableau-max-columns           92
 :arith-tableau-max-rows              50
 :conflicts                           402
 :decisions                           6556
 :del-clause                          624
 :final-checks                        174
 :iuc_solver.num_proxies              76
 :max-memory                          32.13
 :memory                              31.65
 :minimized-lits                      66
 :mk-bool-var                         1862
 :mk-clause                           1688
 :num-allocs                          17576295
 :num-checks                          430
 :pool_solver.checks                  215
 :pool_solver.checks.sat              86
 :pool_solver.checks.undef            1
 :propagations                        26110
 :rlimit-count                        147639
 :time                                0.14
 :time.iuc_solver.get_iuc             0.02
 :time.iuc_solver.get_iuc.hyp_reduce1 0.00
 :time.iuc_solver.get_iuc.hyp_reduce2 0.01
 :time.iuc_solver.get_iuc.learn_core  0.00
 :time.pool_solver.proof              0.00
 :time.pool_solver.smt.total          0.05
 :time.pool_solver.smt.total.sat      0.02
 :time.spacer.ctp                     0.00
 :time.spacer.init_rules              0.00
 :time.spacer.mbp                     0.00
 :time.spacer.solve                   0.12
 :time.spacer.solve.propagate         0.02
 :time.spacer.solve.reach             0.10
 :time.spacer.solve.reach.children    0.01
 :time.spacer.solve.reach.cluster     0.01
 :time.spacer.solve.reach.gen.global  0.01
 :time.spacer.solve.reach.gen.ind     0.02)
(:max-memory   32.13
 :memory       31.65
 :num-allocs   17576295
 :rlimit-count 147639
 :time         0.14
 :total-time   0.16)
